NAME : instances/clustered-diverse-tsp/instance-14.tsp
COMMENT : No Comment
TYPE : TSP
DIMENSION: 50
EDGE_WEIGHT_TYPE : EUC_2D
NODE_COORD_SECTION
1 577 1378 
2 2022 339 
3 771 1346 
4 1629 1138 
5 1562 1993 
6 993 612 
7 723 1432 
8 1629 1057 
9 622 1312 
10 2068 272 
11 990 537 
12 583 1346 
13 1008 582 
14 979 612 
15 1725 1099 
16 979 517 
17 1633 1957 
18 1934 352 
19 936 583 
20 800 996 
21 1045 560 
22 610 1304 
23 1589 1995 
24 957 634 
25 1623 2046 
26 675 1209 
27 849 1062 
28 837 933 
29 955 504 
30 1679 1918 
31 728 922 
32 737 1316 
33 756 1291 
34 1643 1089 
35 1757 1134 
36 1706 1079 
37 954 621 
38 1723 992 
39 902 484 
40 924 523 
41 762 1277 
42 889 499 
43 1549 2042 
44 2033 321 
45 672 1389 
46 575 1295 
47 630 1348 
48 41 1885 
49 1899 249 
50 637 1307 
EOF
